Academic license - for non-commercial use only
Optimize a model with 3400 rows, 3200 columns and 334029 nonzeros
Variable types: 0 continuous, 3200 integer (3200 binary)
Coefficient statistics:
  Matrix range     [1e+00, 4e+01]
  Objective range  [1e+00, 5e+01]
  Bounds range     [1e+00, 1e+00]
  RHS range        [1e+00, 1e+02]
Found heuristic solution: objective 278
Presolve removed 1119 rows and 976 columns
Presolve time: 1.17s
Presolved: 2281 rows, 2224 columns, 190780 nonzeros
Variable types: 0 continuous, 2224 integer (2224 binary)

Root relaxation: objective 8.149649e+01, 123 iterations, 0.02 seconds

    Nodes    |    Current Node    |     Objective Bounds      |     Work
 Expl Unexpl |  Obj  Depth IntInf | Incumbent    BestBd   Gap | It/Node Time

     0     0   81.49649    0   44  278.00000   81.49649  70.7%     -    1s
H    0     0                     128.0000000   81.49649  36.3%     -    1s
H    0     0                     115.0000000   81.49649  29.1%     -    1s
H    0     0                     112.0000000   81.49649  27.2%     -    1s
     0     0   90.11985    0   49  112.00000   90.11985  19.5%     -    1s
H    0     0                     105.0000000   90.11985  14.2%     -    1s
     0     0   92.00327    0   30  105.00000   92.00327  12.4%     -    1s
     0     0   93.00327    0   33  105.00000   93.00327  11.4%     -    1s
     0     0   93.00327    0   32  105.00000   93.00327  11.4%     -    2s
     0     0   98.11765    0   14  105.00000   98.11765  6.55%     -    2s
     0     0   98.11765    0   45  105.00000   98.11765  6.55%     -    2s
     0     0   98.11765    0   37  105.00000   98.11765  6.55%     -    3s
     0     0   98.11765    0   19  105.00000   98.11765  6.55%     -    3s
     0     0   98.11765    0   35  105.00000   98.11765  6.55%     -    3s
     0     0   98.14286    0   24  105.00000   98.14286  6.53%     -    3s
     0     0  102.12795    0   21  105.00000  102.12795  2.74%     -    3s
     0     0  102.12795    0   43  105.00000  102.12795  2.74%     -    3s
     0     0  102.12795    0   48  105.00000  102.12795  2.74%     -    3s
     0     0  102.12795    0   32  105.00000  102.12795  2.74%     -    3s
     0     0  102.14316    0   32  105.00000  102.14316  2.72%     -    3s
     0     0  102.89706    0    8  105.00000  102.89706  2.00%     -    3s
     0     0  103.00000    0    9  105.00000  103.00000  1.90%     -    3s
     0     0  103.33824    0   26  105.00000  103.33824  1.58%     -    3s
     0     0  103.33824    0   34  105.00000  103.33824  1.58%     -    3s
     0     0     cutoff    0       105.00000  105.00000  0.00%     -    3s

Cutting planes:
  Gomory: 2
  Clique: 10
  Zero half: 1

Explored 1 nodes (1576 simplex iterations) in 3.79 seconds
Thread count was 8 (of 8 available processors)

Solution count 5: 105 112 115 ... 278

Optimal solution found (tolerance 1.00e-04)
Best objective 1.050000000000e+02, best bound 1.050000000000e+02, gap 0.0000%

